c preprocessed version of contiki_ircc_handle_connection, 32 vertices, 54 edges
p td 32 54
1 0
10 0
25 0
2 1
15 1
3 2
13 2
4 3
27 3
4 5
13 4
6 5
12 5
29 5
14 5
24 5
26 5
28 5
6 7
13 6
7 8
29 7
9 8
22 8
10 9
23 9
11 10
11 12
18 11
13 12
13 14
24 13
21 13
26 13
28 13
14 15
16 15
16 17
27 16
17 18
25 17
19 18
19 20
23 19
21 20
22 21
24 23
26 25
28 27
30 31
30 20
30 22
31 13
31 29
